(set-logic QF_LIA)
(declare-fun x0 () Int)
(declare-fun x1 () Int)
(declare-fun x2 () Int)
(declare-fun x3 () Int)
(declare-fun x4 () Int)
(declare-fun x5 () Int)
(declare-fun x6 () Int)
(declare-fun x7 () Int)
(declare-fun x8 () Int)
(declare-fun x9 () Int)
(declare-fun A0 () Bool)
(declare-fun A1 () Bool)
(declare-fun A2 () Bool)
(declare-fun A3 () Bool)
(declare-fun A4 () Bool)
(declare-fun A5 () Bool)
(declare-fun A6 () Bool)
(declare-fun A7 () Bool)
(declare-fun A8 () Bool)
(declare-fun A9 () Bool)
(assert (let ((.def_0 (* (- 1) x5))) (let ((.def_1 (< .def_0 (- 1)))) (let ((.def_2 (not .def_1))) (let ((.def_3 (not A8))) (let ((.def_4 (or .def_3 .def_2))) (let ((.def_5 (* 1 x9))) (let ((.def_6 (+ .def_0 .def_5))) (let ((.def_7 (< .def_6 1))) (let ((.def_8 (not .def_7))) (let ((.def_9 (or .def_8 A8))) (let ((.def_10 (not .def_9))) (let ((.def_11 (or .def_10 .def_4))) (let ((.def_12 (not .def_11))) (let ((.def_13 (* 1 x3))) (let ((.def_14 (< .def_13 (- 1)))) (let ((.def_15 (not .def_14))) (let ((.def_16 (not A3))) (let ((.def_17 (= .def_16 .def_15))) (let ((.def_18 (* (- 1) x2))) (let ((.def_19 (* (- 1) x6))) (let ((.def_20 (+ .def_19 .def_18))) (let ((.def_21 (< .def_20 (- 1)))) (let ((.def_22 (or .def_21 A3))) (let ((.def_23 (not .def_22))) (let ((.def_24 (and .def_23 .def_17))) (let ((.def_25 (not .def_24))) (let ((.def_26 (and .def_25 .def_12))) (let ((.def_27 (not .def_26))) (let ((.def_28 (* 1 x0))) (let ((.def_29 (< .def_28 1))) (let ((.def_30 (not .def_29))) (let ((.def_31 (* (- 1) x9))) (let ((.def_32 (+ .def_31 .def_13))) (let ((.def_33 (< .def_32 1))) (let ((.def_34 (and .def_33 .def_30))) (let ((.def_35 (not .def_34))) (let ((.def_36 (not A5))) (let ((.def_37 (or .def_36 .def_2))) (let ((.def_38 (and .def_37 .def_35))) (let ((.def_39 (not .def_38))) (let ((.def_40 (* 1 x8))) (let ((.def_41 (< .def_40 (- 1)))) (let ((.def_42 (or .def_3 .def_41))) (let ((.def_43 (not .def_42))) (let ((.def_44 (+ .def_13 .def_5))) (let ((.def_45 (< .def_44 (- 1)))) (let ((.def_46 (not .def_45))) (let ((.def_47 (* 1 x1))) (let ((.def_48 (+ .def_47 .def_40))) (let ((.def_49 (< .def_48 (- 1)))) (let ((.def_50 (or .def_49 .def_46))) (let ((.def_51 (not .def_50))) (let ((.def_52 (and .def_51 .def_43))) (let ((.def_53 (not .def_52))) (let ((.def_54 (or .def_53 .def_39))) (let ((.def_55 (or .def_54 .def_27))) (let ((.def_56 (* 1 x5))) (let ((.def_57 (* 1 x7))) (let ((.def_58 (+ .def_57 .def_56))) (let ((.def_59 (< .def_58 (- 1)))) (let ((.def_60 (< .def_57 (- 1)))) (let ((.def_61 (not .def_60))) (let ((.def_62 (and .def_61 .def_59))) (let ((.def_63 (and .def_41 A0))) (let ((.def_64 (or .def_63 .def_62))) (let ((.def_65 (not .def_64))) (let ((.def_66 (* (- 1) x3))) (let ((.def_67 (+ .def_0 .def_66))) (let ((.def_68 (< .def_67 1))) (let ((.def_69 (or A4 .def_68))) (let ((.def_70 (not .def_69))) (let ((.def_71 (* (- 1) x0))) (let ((.def_72 (+ .def_47 .def_71))) (let ((.def_73 (< .def_72 (- 1)))) (let ((.def_74 (not .def_73))) (let ((.def_75 (or .def_74 .def_3))) (let ((.def_76 (not .def_75))) (let ((.def_77 (and .def_76 .def_70))) (let ((.def_78 (and .def_77 .def_65))) (let ((.def_79 (not A9))) (let ((.def_80 (or .def_79 .def_3))) (let ((.def_81 (not .def_80))) (let ((.def_82 (not A0))) (let ((.def_83 (< .def_5 1))) (let ((.def_84 (not .def_83))) (let ((.def_85 (or .def_84 .def_82))) (let ((.def_86 (and .def_85 .def_81))) (let ((.def_87 (not .def_86))) (let ((.def_88 (* (- 1) x4))) (let ((.def_89 (+ .def_88 .def_18))) (let ((.def_90 (< .def_89 (- 1)))) (let ((.def_91 (not .def_90))) (let ((.def_92 (and A5 .def_91))) (let ((.def_93 (not .def_92))) (let ((.def_94 (and A0 A0))) (let ((.def_95 (and .def_94 .def_93))) (let ((.def_96 (and .def_95 .def_87))) (let ((.def_97 (not .def_96))) (let ((.def_98 (or .def_97 .def_78))) (let ((.def_99 (not .def_98))) (let ((.def_100 (and .def_99 .def_55))) (let ((.def_101 (* (- 1) x1))) (let ((.def_102 (< .def_101 1))) (let ((.def_103 (and .def_102 .def_79))) (let ((.def_104 (not A2))) (let ((.def_105 (or .def_104 .def_79))) (let ((.def_106 (not .def_105))) (let ((.def_107 (or .def_106 .def_103))) (let ((.def_108 (not .def_107))) (let ((.def_109 (not A6))) (let ((.def_110 (and A4 .def_109))) (let ((.def_111 (* 1 x4))) (let ((.def_112 (+ .def_111 .def_57))) (let ((.def_113 (< .def_112 (- 1)))) (let ((.def_114 (not .def_113))) (let ((.def_115 (< .def_101 (- 1)))) (let ((.def_116 (or .def_115 .def_114))) (let ((.def_117 (not .def_116))) (let ((.def_118 (and .def_117 .def_110))) (let ((.def_119 (not .def_118))) (let ((.def_120 (or .def_119 .def_108))) (let ((.def_121 (or .def_73 .def_73))) (let ((.def_122 (< .def_56 1))) (let ((.def_123 (not .def_122))) (let ((.def_124 (+ .def_13 .def_18))) (let ((.def_125 (< .def_124 (- 1)))) (let ((.def_126 (not .def_125))) (let ((.def_127 (or .def_126 .def_123))) (let ((.def_128 (not .def_127))) (let ((.def_129 (or .def_128 .def_121))) (let ((.def_130 (not .def_129))) (let ((.def_131 (and .def_104 A7))) (let ((.def_132 (not .def_131))) (let ((.def_133 (+ .def_88 .def_19))) (let ((.def_134 (< .def_133 (- 1)))) (let ((.def_135 (or A5 .def_134))) (let ((.def_136 (and .def_135 .def_132))) (let ((.def_137 (not .def_136))) (let ((.def_138 (or .def_137 .def_130))) (let ((.def_139 (not .def_138))) (let ((.def_140 (or .def_139 .def_120))) (let ((.def_141 (< .def_5 (- 1)))) (let ((.def_142 (not .def_141))) (let ((.def_143 (* (- 1) x7))) (let ((.def_144 (+ .def_88 .def_143))) (let ((.def_145 (< .def_144 1))) (let ((.def_146 (and .def_145 .def_142))) (let ((.def_147 (+ .def_47 .def_13))) (let ((.def_148 (< .def_147 (- 1)))) (let ((.def_149 (not .def_148))) (let ((.def_150 (* 1 x2))) (let ((.def_151 (+ .def_150 .def_13))) (let ((.def_152 (< .def_151 1))) (let ((.def_153 (= .def_152 .def_149))) (let ((.def_154 (not .def_153))) (let ((.def_155 (and .def_154 .def_146))) (let ((.def_156 (= .def_104 A7))) (let ((.def_157 (not .def_156))) (let ((.def_158 (+ .def_31 .def_56))) (let ((.def_159 (< .def_158 1))) (let ((.def_160 (not .def_159))) (let ((.def_161 (< .def_143 (- 1)))) (let ((.def_162 (not .def_161))) (let ((.def_163 (and .def_162 .def_160))) (let ((.def_164 (or .def_163 .def_157))) (let ((.def_165 (and .def_164 .def_155))) (let ((.def_166 (or .def_74 .def_1))) (let ((.def_167 (not .def_166))) (let ((.def_168 (+ .def_57 .def_71))) (let ((.def_169 (< .def_168 (- 1)))) (let ((.def_170 (< .def_18 1))) (let ((.def_171 (not .def_170))) (let ((.def_172 (and .def_171 .def_169))) (let ((.def_173 (not .def_172))) (let ((.def_174 (and .def_173 .def_167))) (let ((.def_175 (not A4))) (let ((.def_176 (or .def_175 .def_36))) (let ((.def_177 (not .def_115))) (let ((.def_178 (and .def_177 A5))) (let ((.def_179 (not .def_178))) (let ((.def_180 (or .def_179 .def_176))) (let ((.def_181 (and .def_180 .def_174))) (let ((.def_182 (not .def_181))) (let ((.def_183 (and .def_182 .def_165))) (let ((.def_184 (= .def_183 .def_140))) (let ((.def_185 (or .def_184 .def_100))) (let ((.def_186 (not .def_185))) (let ((.def_187 (not .def_102))) (let ((.def_188 (* 1 x6))) (let ((.def_189 (+ .def_188 .def_5))) (let ((.def_190 (< .def_189 (- 1)))) (let ((.def_191 (or .def_190 .def_187))) (let ((.def_192 (not A1))) (let ((.def_193 (or .def_192 A1))) (let ((.def_194 (or .def_193 .def_191))) (let ((.def_195 (not .def_194))) (let ((.def_196 (< .def_71 1))) (let ((.def_197 (not .def_196))) (let ((.def_198 (= .def_36 .def_197))) (let ((.def_199 (and .def_175 .def_3))) (let ((.def_200 (not .def_199))) (let ((.def_201 (= .def_200 .def_198))) (let ((.def_202 (not .def_201))) (let ((.def_203 (and .def_202 .def_195))) (let ((.def_204 (not .def_203))) (let ((.def_205 (+ .def_57 .def_101))) (let ((.def_206 (< .def_205 1))) (let ((.def_207 (< .def_19 (- 1)))) (let ((.def_208 (not .def_207))) (let ((.def_209 (= .def_208 .def_206))) (let ((.def_210 (not .def_209))) (let ((.def_211 (not A7))) (let ((.def_212 (and .def_79 .def_211))) (let ((.def_213 (not .def_212))) (let ((.def_214 (and .def_213 .def_210))) (let ((.def_215 (or A6 .def_3))) (let ((.def_216 (not .def_215))) (let ((.def_217 (< .def_31 (- 1)))) (let ((.def_218 (or A8 .def_217))) (let ((.def_219 (or .def_218 .def_216))) (let ((.def_220 (and .def_219 .def_214))) (let ((.def_221 (= .def_220 .def_204))) (let ((.def_222 (not .def_221))) (let ((.def_223 (+ .def_56 .def_57))) (let ((.def_224 (< .def_223 (- 1)))) (let ((.def_225 (not .def_224))) (let ((.def_226 (and .def_82 .def_225))) (let ((.def_227 (not .def_226))) (let ((.def_228 (< .def_18 (- 1)))) (let ((.def_229 (< .def_19 1))) (let ((.def_230 (and .def_229 .def_228))) (let ((.def_231 (and .def_230 .def_227))) (let ((.def_232 (not .def_231))) (let ((.def_233 (< .def_57 1))) (let ((.def_234 (not .def_233))) (let ((.def_235 (and .def_234 .def_3))) (let ((.def_236 (or .def_16 A3))) (let ((.def_237 (not .def_236))) (let ((.def_238 (and .def_237 .def_235))) (let ((.def_239 (or .def_238 .def_232))) (let ((.def_240 (not .def_239))) (let ((.def_241 (or A5 .def_175))) (let ((.def_242 (* (- 1) x8))) (let ((.def_243 (+ .def_111 .def_242))) (let ((.def_244 (< .def_243 1))) (let ((.def_245 (and A1 .def_244))) (let ((.def_246 (or .def_245 .def_241))) (let ((.def_247 (not .def_246))) (let ((.def_248 (+ .def_56 .def_101))) (let ((.def_249 (< .def_248 1))) (let ((.def_250 (not .def_249))) (let ((.def_251 (or .def_250 .def_211))) (let ((.def_252 (+ .def_47 .def_242))) (let ((.def_253 (< .def_252 (- 1)))) (let ((.def_254 (not .def_253))) (let ((.def_255 (and A2 .def_254))) (let ((.def_256 (or .def_255 .def_251))) (let ((.def_257 (not .def_256))) (let ((.def_258 (or .def_257 .def_247))) (let ((.def_259 (not .def_258))) (let ((.def_260 (or .def_259 .def_240))) (let ((.def_261 (and .def_260 .def_222))) (let ((.def_262 (not .def_261))) (let ((.def_263 (+ .def_143 .def_188))) (let ((.def_264 (< .def_263 1))) (let ((.def_265 (or .def_36 .def_264))) (let ((.def_266 (not .def_265))) (let ((.def_267 (or .def_175 .def_109))) (let ((.def_268 (and .def_267 .def_266))) (let ((.def_269 (or A9 .def_122))) (let ((.def_270 (not .def_269))) (let ((.def_271 (or A6 A0))) (let ((.def_272 (or .def_271 .def_270))) (let ((.def_273 (not .def_272))) (let ((.def_274 (or .def_273 .def_268))) (let ((.def_275 (and .def_79 A0))) (let ((.def_276 (< .def_31 1))) (let ((.def_277 (and .def_276 A6))) (let ((.def_278 (and .def_277 .def_275))) (let ((.def_279 (or A1 .def_36))) (let ((.def_280 (+ .def_56 .def_19))) (let ((.def_281 (< .def_280 (- 1)))) (let ((.def_282 (and .def_281 .def_82))) (let ((.def_283 (not .def_282))) (let ((.def_284 (or .def_283 .def_279))) (let ((.def_285 (or .def_284 .def_278))) (let ((.def_286 (not .def_285))) (let ((.def_287 (or .def_286 .def_274))) (let ((.def_288 (= A9 A8))) (let ((.def_289 (< .def_143 1))) (let ((.def_290 (and A5 .def_289))) (let ((.def_291 (not .def_290))) (let ((.def_292 (or .def_291 .def_288))) (let ((.def_293 (not .def_292))) (let ((.def_294 (+ .def_88 .def_40))) (let ((.def_295 (< .def_294 (- 1)))) (let ((.def_296 (not .def_295))) (let ((.def_297 (or .def_296 .def_16))) (let ((.def_298 (not .def_297))) (let ((.def_299 (+ .def_28 .def_101))) (let ((.def_300 (< .def_299 (- 1)))) (let ((.def_301 (not .def_300))) (let ((.def_302 (or .def_301 A1))) (let ((.def_303 (and .def_302 .def_298))) (let ((.def_304 (or .def_303 .def_293))) (let ((.def_305 (not .def_304))) (let ((.def_306 (+ .def_71 .def_101))) (let ((.def_307 (< .def_306 (- 1)))) (let ((.def_308 (not .def_307))) (let ((.def_309 (< .def_47 (- 1)))) (let ((.def_310 (not .def_309))) (let ((.def_311 (or .def_310 .def_308))) (let ((.def_312 (not .def_311))) (let ((.def_313 (and .def_16 .def_211))) (let ((.def_314 (or .def_313 .def_312))) (let ((.def_315 (< .def_188 1))) (let ((.def_316 (= .def_192 .def_315))) (let ((.def_317 (and .def_109 A2))) (let ((.def_318 (not .def_317))) (let ((.def_319 (and .def_318 .def_316))) (let ((.def_320 (or .def_319 .def_314))) (let ((.def_321 (and .def_320 .def_305))) (let ((.def_322 (not .def_321))) (let ((.def_323 (or .def_322 .def_287))) (let ((.def_324 (or .def_323 .def_262))) (let ((.def_325 (not .def_324))) (let ((.def_326 (= .def_325 .def_186))) (let ((.def_327 (<= x9 1))) (let ((.def_328 (<= 0 x9))) (let ((.def_329 (<= x8 1))) (let ((.def_330 (<= 0 x8))) (let ((.def_331 (<= x7 1))) (let ((.def_332 (<= 0 x7))) (let ((.def_333 (<= x6 1))) (let ((.def_334 (<= 0 x6))) (let ((.def_335 (<= x5 1))) (let ((.def_336 (<= 0 x5))) (let ((.def_337 (<= x4 1))) (let ((.def_338 (<= 0 x4))) (let ((.def_339 (<= x3 1))) (let ((.def_340 (<= 0 x3))) (let ((.def_341 (<= x2 1))) (let ((.def_342 (<= 0 x2))) (let ((.def_343 (<= x1 1))) (let ((.def_344 (<= 0 x1))) (let ((.def_345 (<= x0 1))) (let ((.def_346 (<= 0 x0))) (let ((.def_347 (and .def_346 .def_345 .def_344 .def_343 .def_342 .def_341 .def_340 .def_339 .def_338 .def_337 .def_336 .def_335 .def_334 .def_333 .def_332 .def_331 .def_330 .def_329 .def_328 .def_327 .def_326))) .def_347)))))))))))))))))))))))))))))))))))))))))))))))))))))))))))))))))))))))))))))))))))))))))))))))))))))))))))))))))))))))))))))))))))))))))))))))))))))))))))))))))))))))))))))))))))))))))))))))))))))))))))))))))))))))))))))))))))))))))))))))))))))))))))))))))))))))))))))))))))))))))))))))))))))))))))))))))))))))))))))))))))))))))))))))))))))))))))))
(check-sat)
